100 8
540 935
230 897
160 453
346 486
546 564
413 920
262 903
135 861
594 894
822 518
656 835
801 607
167 424
732 263
772 534
657 771
893 930
683 556
335 582
736 97
516 594
464 148
778 685
766 177
693 707
160 452
744 444
416 947
914 420
774 720
730 746
574 948
832 153
281 706
835 190
306 500
280 242
580 795
439 857
687 317
729 175
657 224
636 724
234 661
349 760
238 199
191 535
208 837
345 816
201 677
180 499
771 839
873 576
666 598
778 769
221 608
313 561
777 177
260 658
622 395
374 828
760 485
158 915
299 591
555 785
338 743
751 46
810 466
682 741
215 595
587 395
198 450
547 178
312 125
848 206
668 718
521 829
756 415
534 670
665 46
263 472
749 493
669 587
148 847
755 223
314 484
575 796
866 885
829 604
531 932
639 267
641 110
778 245
725 238
188 268
323 589
759 746
547 841
741 606
358 753
